(set-logic ALL)
(declare-fun seed0_T_1 () Bool)
(declare-fun seed0_T_2 () Bool)
(declare-fun seed0_T_3 () Bool)
(declare-fun seed0_T_4 () Bool)
(declare-fun seed0_T_5 () Bool)
(declare-fun seed0_T_6 () Bool)
(declare-fun seed0_T_7 () Bool)
(declare-fun seed0_var_0xINPUT_68155 () String)
(assert (and (or (= seed0_T_1 (not (= "j2DpYJpVEE" seed0_var_0xINPUT_68155))) (not (str.suffixof (str.++ seed0_var_0xINPUT_68155 "P6GeQ4oMFBUDl") (str.++ seed0_var_0xINPUT_68155 "f6XTwSh0AxzkF98W4B")))) (or seed0_T_1 (xor (str.suffixof (str.++ seed0_var_0xINPUT_68155 "TEhx9SR28YtK3s6g") (str.++ seed0_var_0xINPUT_68155 "v91UzkQAVFm")) (str.<= (str.++ seed0_var_0xINPUT_68155 "sGveKDHQEdM4Z") (str.++ seed0_var_0xINPUT_68155 "4nHVg1CoiPmqtKsJpZGl")))) (or (= seed0_T_2 (not (= "" seed0_var_0xINPUT_68155))) (or (str.prefixof (str.++ seed0_var_0xINPUT_68155 "DqRXE0ZCcFuotre") (str.++ seed0_var_0xINPUT_68155 "4aN1Mc")) (str.<= (str.++ seed0_var_0xINPUT_68155 "5DRgZcIt7mT") (str.++ seed0_var_0xINPUT_68155 "qOPFLQNrAlhImU5v")))) (or seed0_T_2 (or (str.suffixof (str.++ seed0_var_0xINPUT_68155 "MFg0PprV8SlkQ") (str.++ seed0_var_0xINPUT_68155 "V4fs2oyMLeONS3Qm7P9")) (str.contains (str.++ seed0_var_0xINPUT_68155 "") (str.++ seed0_var_0xINPUT_68155 "SeDWN1O")))) (or (= seed0_T_3 (not (= "" seed0_var_0xINPUT_68155))) (not (str.<= (str.++ seed0_var_0xINPUT_68155 "RvM51DNZjLAHdePVx4w") (str.++ seed0_var_0xINPUT_68155 "rY89GPi")))) (or seed0_T_3 (or (str.<= (str.++ seed0_var_0xINPUT_68155 "6fqF1iOxMHtAB4J") (str.++ seed0_var_0xINPUT_68155 "YIqVpW0gdtSGRe6rO1")) (str.<= (str.++ seed0_var_0xINPUT_68155 "") (str.++ seed0_var_0xINPUT_68155 "QBnplFhtUH1xoL")))) (or (= seed0_T_4 (not (= seed0_var_0xINPUT_68155 ""))) (xor (str.contains (str.++ seed0_var_0xINPUT_68155 "67R3KA05iMvOg42Npu") (str.++ seed0_var_0xINPUT_68155 "K1EfZU8vuLbHqAYGwl")) (str.contains (str.++ seed0_var_0xINPUT_68155 "9FqzsP2aYdrKy7ACHuE") (str.++ seed0_var_0xINPUT_68155 "")))) (or seed0_T_4 (=> (str.prefixof (str.++ seed0_var_0xINPUT_68155 "FAI5QjCe8lhN1q4") (str.++ seed0_var_0xINPUT_68155 "NLi9XDmfnoYa")) (str.suffixof (str.++ seed0_var_0xINPUT_68155 "1CfVo") (str.++ seed0_var_0xINPUT_68155 "rBtxcK")))) (or (= seed0_T_5 (= seed0_var_0xINPUT_68155 "")) (xor (str.<= (str.++ seed0_var_0xINPUT_68155 "hsO8cwLXpq5kU63") (str.++ seed0_var_0xINPUT_68155 "W9PYZ1cO5X6qe8")) (str.prefixof (str.++ seed0_var_0xINPUT_68155 "jb7mQsna") (str.++ seed0_var_0xINPUT_68155 "Irf1oFn6QRv")))) (or (= seed0_T_6 (not seed0_T_5)) (str.prefixof (str.++ seed0_var_0xINPUT_68155 "Z") (str.++ seed0_var_0xINPUT_68155 "CzHn"))) (or seed0_T_6 (and (str.<= (str.++ seed0_var_0xINPUT_68155 "eFB9W") (str.++ seed0_var_0xINPUT_68155 "cHdLXu8G")) (str.prefixof (str.++ seed0_var_0xINPUT_68155 "z4GoluJRgsLN0t3WOD") (str.++ seed0_var_0xINPUT_68155 "I2lxgVb")))) (or (= seed0_T_7 (not (= seed0_var_0xINPUT_68155 ""))) (or (str.contains (str.++ seed0_var_0xINPUT_68155 "D61JgElSVp98uzO2i") (str.++ seed0_var_0xINPUT_68155 "QGghLvim")) (str.contains (str.++ seed0_var_0xINPUT_68155 "wHRWjrt1kBJ9vpgX") (str.++ seed0_var_0xINPUT_68155 "svCoOH0GUaV9zjFQ")))) (or seed0_T_7 (or (str.prefixof (str.++ seed0_var_0xINPUT_68155 "fzVg7ZQqe1DYn5aplGJ") (str.++ seed0_var_0xINPUT_68155 "P4wmoZ59Hu8")) (str.prefixof (str.++ seed0_var_0xINPUT_68155 "RAkNZwdxGQl") (str.++ seed0_var_0xINPUT_68155 "S2fhOoM9Tm5EBKHb3k"))))))
(check-sat)
(exit)